2306 1664 100 99 97 96 95 94 93 91 90 89 88 87 86 85 84 82 81 80 78 77 76 75 74 73 71 70 69 67 66 65 64 62 61 60 59 58 57 56 54 53 52 51 50 49 48 44 43 42 41 40 38 37 36 35 34 31 30 28 26 25 24 23 21 20 19 18 17 16 15 14 11 9 7 5 3 2 